NAME          
ROWS
 N  OBJ
 L  c1
 L  c2
COLUMNS
    MARKER    'MARKER'                 'INTORG'
    x[1]      c1        877
    x[1]      c2        916
    x[1]      OBJ       -240
    x[2]      c1        368
    x[2]      c2        844
    x[2]      OBJ       -618
    x[3]      c1        608
    x[3]      c2        387
    x[3]      OBJ       -160
    x[4]      c1        873
    x[4]      c2        148
    x[4]      OBJ       -25
    x[5]      c1        182
    x[5]      c2        264
    x[5]      OBJ       -65
    x[6]      c1        114
    x[6]      c2        994
    x[6]      OBJ       -902
    x[7]      c1        591
    x[7]      c2        267
    x[7]      OBJ       -176
    x[8]      c1        756
    x[8]      c2        438
    x[8]      OBJ       -297
    x[9]      c1        764
    x[9]      c2        627
    x[9]      OBJ       -701
    x[10]     c1        793
    x[10]     c2        419
    x[10]     OBJ       -778
    x[11]     c1        499
    x[11]     c2        938
    x[11]     OBJ       -247
    x[12]     c1        493
    x[12]     c2        25
    x[12]     OBJ       -942
    x[13]     c1        744
    x[13]     c2        389
    x[13]     OBJ       -968
    x[14]     c1        726
    x[14]     c2        83
    x[14]     OBJ       -765
    x[15]     c1        126
    x[15]     c2        392
    x[15]     OBJ       -872
    x[16]     c1        65
    x[16]     c2        233
    x[16]     OBJ       -117
    x[17]     c1        865
    x[17]     c2        460
    x[17]     OBJ       -685
    x[18]     c1        652
    x[18]     c2        938
    x[18]     OBJ       -686
    x[19]     c1        772
    x[19]     c2        450
    x[19]     OBJ       -90
    x[20]     c1        397
    x[20]     c2        413
    x[20]     OBJ       -451
    x[21]     c1        232
    x[21]     c2        985
    x[21]     OBJ       -3
    x[22]     c1        230
    x[22]     c2        360
    x[22]     OBJ       -777
    x[23]     c1        28
    x[23]     c2        428
    x[23]     OBJ       -700
    x[24]     c1        771
    x[24]     c2        214
    x[24]     OBJ       -580
    x[25]     c1        470
    x[25]     c2        262
    x[25]     OBJ       -818
    x[26]     c1        599
    x[26]     c2        205
    x[26]     OBJ       -368
    x[27]     c1        58
    x[27]     c2        586
    x[27]     OBJ       -842
    x[28]     c1        266
    x[28]     c2        86
    x[28]     OBJ       -107
    x[29]     c1        437
    x[29]     c2        17
    x[29]     OBJ       -568
    x[30]     c1        47
    x[30]     c2        148
    x[30]     OBJ       -667
RHS
    rhs       c1        7202
    rhs       c2        6458
RANGES
BOUNDS
 LO bounds    x[1]      0
 PL bounds    x[1]
 LO bounds    x[2]      0
 PL bounds    x[2]
 LO bounds    x[3]      0
 PL bounds    x[3]
 LO bounds    x[4]      0
 PL bounds    x[4]
 LO bounds    x[5]      0
 PL bounds    x[5]
 LO bounds    x[6]      0
 PL bounds    x[6]
 LO bounds    x[7]      0
 PL bounds    x[7]
 LO bounds    x[8]      0
 PL bounds    x[8]
 LO bounds    x[9]      0
 PL bounds    x[9]
 LO bounds    x[10]     0
 PL bounds    x[10]
 LO bounds    x[11]     0
 PL bounds    x[11]
 LO bounds    x[12]     0
 PL bounds    x[12]
 LO bounds    x[13]     0
 PL bounds    x[13]
 LO bounds    x[14]     0
 PL bounds    x[14]
 LO bounds    x[15]     0
 PL bounds    x[15]
 LO bounds    x[16]     0
 PL bounds    x[16]
 LO bounds    x[17]     0
 PL bounds    x[17]
 LO bounds    x[18]     0
 PL bounds    x[18]
 LO bounds    x[19]     0
 PL bounds    x[19]
 LO bounds    x[20]     0
 PL bounds    x[20]
 LO bounds    x[21]     0
 PL bounds    x[21]
 LO bounds    x[22]     0
 PL bounds    x[22]
 LO bounds    x[23]     0
 PL bounds    x[23]
 LO bounds    x[24]     0
 PL bounds    x[24]
 LO bounds    x[25]     0
 PL bounds    x[25]
 LO bounds    x[26]     0
 PL bounds    x[26]
 LO bounds    x[27]     0
 PL bounds    x[27]
 LO bounds    x[28]     0
 PL bounds    x[28]
 LO bounds    x[29]     0
 PL bounds    x[29]
 LO bounds    x[30]     0
 PL bounds    x[30]
ENDATA
